language ESSENCE' 1.0
letting initGrid be [
    [1, 2, 2, 2, 1, 1],
[2, 1, 2, 2, 2, 2],
[1, 3, 3, 2, 3, 2],
[2, 1, 1, 1, 1, 1],
[2, 2, 1, 3, 1, 3]
    ]
letting goalBlocksRemaining be 3
letting noSteps be 22
